(declare-fun a_ack!63 () (_ BitVec 64))
(declare-fun c_ack!62 () (_ BitVec 64))
(assert (not (fp.eq ((_ to_fp 11 53) a_ack!63) ((_ to_fp 11 53) #x0000000000000000))))
(assert (not (fp.eq ((_ to_fp 11 53) c_ack!62) ((_ to_fp 11 53) #x0000000000000000))))
(assert (fp.leq (fp.abs ((_ to_fp 11 53) a_ack!63))
        ((_ to_fp 11 53) #x3ff0000000000000)))
(assert (not (fp.geq (fp.abs ((_ to_fp 11 53) c_ack!62))
             ((_ to_fp 11 53) #x3ff0000000000000))))
(assert (not (fp.leq (fp.abs ((_ to_fp 11 53) c_ack!62))
             ((_ to_fp 11 53) #x3ff0000000000000))))
(assert (fp.lt (fp.abs ((_ to_fp 11 53) a_ack!63)) (fp.abs ((_ to_fp 11 53) c_ack!62))))

(check-sat)
(exit)
